decision_x1=[0,2];
decision_x2=[0,2];
decision_x3=[0,2];
decision_x4=[0,2];
decision_x5=[0,2];
decision_x6=[0,2];
decision_x7=[0,2];
decision_x8=[0,2];
decision_x9=[0,2];
decision_x10=[0,2];
decision_x11=[0,2];
decision_x12=[0,2];
decision_x13=[0,2];
decision_x14=[0,2];
decision_x15=[0,2];
decision_x16=[0,2];
decision_x17=[0,2];
decision_x18=[0,2];
decision_x19=[0,2];
decision_x20=[0,2];
decision_x21=[0,2];
decision_x22=[0,2];
decision_x23=[0,2];
decision_x24=[0,2];
decision_x25=[0,2];
random_y1=[0,2];
random_y2=[0,2];
random_y3=[0,2];
random_y4=[0,2];
random_y5=[0,2];
constraint_x2_x1=[
0,0,3.5|
0,1,7.6|
0,2,0.67|
1,0,6.2|
1,1,2.3|
1,2,2.3|
2,0,2.9|
2,1,6.7|
2,2,9|
];
constraint_x4_x2=[
0,0,0.86|
0,1,6.5|
0,2,7.6|
1,0,7.3|
1,1,5.7|
1,2,1.8|
2,0,7.8|
2,1,4.3|
2,2,7.2|
];
constraint_x5_x4=[
0,0,5.8|
0,1,0.49|
0,2,0.54|
1,0,4.2|
1,1,2.9|
1,2,8|
2,0,5.2|
2,1,0.47|
2,2,3.1|
];
constraint_x6_x1=[
0,0,2.4|
0,1,0.057|
0,2,7.4|
1,0,1.9|
1,1,9.8|
1,2,9.3|
2,0,7.9|
2,1,2.2|
2,2,5.9|
];
constraint_x6_x3=[
0,0,0.76|
0,1,7.6|
0,2,1.6|
1,0,1.9|
1,1,3.8|
1,2,5.4|
2,0,7.4|
2,1,5.1|
2,2,6|
];
constraint_x6_x5=[
0,0,5.5|
0,1,1.9|
0,2,8.5|
1,0,7.6|
1,1,1.7|
1,2,9.5|
2,0,2.2|
2,1,2.5|
2,2,2.4|
];
constraint_x7_x2=[
0,0,3.4|
0,1,0.44|
0,2,7.4|
1,0,5.5|
1,1,2.6|
1,2,4.3|
2,0,7.3|
2,1,6.8|
2,2,6.8|
];
constraint_x7_x3=[
0,0,2.6|
0,1,5.9|
0,2,5.1|
1,0,5.2|
1,1,6.8|
1,2,5.5|
2,0,2.7|
2,1,9.9|
2,2,6.1|
];
constraint_x7_x4=[
0,0,4.2|
0,1,5.4|
0,2,9.5|
1,0,2.6|
1,1,9.1|
1,2,0.56|
2,0,5.1|
2,1,3.5|
2,2,7.9|
];
constraint_x7_x5=[
0,0,7.6|
0,1,2.6|
0,2,7.3|
1,0,9.9|
1,1,7.8|
1,2,8.5|
2,0,7.3|
2,1,9|
2,2,8.3|
];
constraint_x8_x4=[
0,0,0.11|
0,1,1.6|
0,2,3.3|
1,0,4.9|
1,1,5.2|
1,2,7.1|
2,0,8.5|
2,1,6.2|
2,2,9.3|
];
constraint_x8_x6=[
0,0,7.2|
0,1,9.9|
0,2,3.7|
1,0,3.7|
1,1,5.5|
1,2,8.8|
2,0,0.42|
2,1,0.37|
2,2,5.4|
];
constraint_x8_x7=[
0,0,6|
0,1,4.6|
0,2,2.8|
1,0,6|
1,1,9.9|
1,2,3.9|
2,0,8.5|
2,1,9.8|
2,2,7.6|
];
constraint_x9_x2=[
0,0,5.6|
0,1,1.9|
0,2,9.5|
1,0,1.7|
1,1,0.8|
1,2,7|
2,0,3.8|
2,1,5.6|
2,2,1.6|
];
constraint_x9_x4=[
0,0,2.5|
0,1,4|
0,2,0.16|
1,0,2.4|
1,1,6.7|
1,2,8.8|
2,0,1.2|
2,1,9.5|
2,2,9.8|
];
constraint_x9_x5=[
0,0,3.2|
0,1,4.9|
0,2,5.4|
1,0,0.59|
1,1,2.4|
1,2,2.2|
2,0,4.9|
2,1,8.3|
2,2,9|
];
constraint_x9_x6=[
0,0,8.6|
0,1,8.7|
0,2,0.57|
1,0,4.8|
1,1,0.28|
1,2,4.6|
2,0,5.7|
2,1,6.3|
2,2,3.9|
];
constraint_x9_x8=[
0,0,3.5|
0,1,8.9|
0,2,1.1|
1,0,6.1|
1,1,9.7|
1,2,3|
2,0,7.3|
2,1,2.9|
2,2,2.6|
];
constraint_x10_x2=[
0,0,5.1|
0,1,8.1|
0,2,7.8|
1,0,1.9|
1,1,9.9|
1,2,0.84|
2,0,1.2|
2,1,3.1|
2,2,7.4|
];
constraint_x10_x3=[
0,0,3.3|
0,1,7.2|
0,2,8.4|
1,0,6.9|
1,1,2.1|
1,2,0.99|
2,0,4.8|
2,1,0.46|
2,2,3.7|
];
constraint_x10_x4=[
0,0,2.9|
0,1,7.7|
0,2,5.1|
1,0,8|
1,1,6.8|
1,2,7.4|
2,0,7.4|
2,1,5.4|
2,2,1.1|
];
constraint_x10_x5=[
0,0,3.2|
0,1,9.1|
0,2,6.9|
1,0,1.7|
1,1,7.2|
1,2,6.1|
2,0,1.3|
2,1,8.1|
2,2,2.3|
];
constraint_x10_x6=[
0,0,6.7|
0,1,4|
0,2,9.1|
1,0,5.9|
1,1,8.7|
1,2,8.1|
2,0,0.99|
2,1,7.6|
2,2,5.6|
];
constraint_x10_x7=[
0,0,3.8|
0,1,8.7|
0,2,1.4|
1,0,1.1|
1,1,5.1|
1,2,8.2|
2,0,3.2|
2,1,7.5|
2,2,1|
];
constraint_x10_x8=[
0,0,0.95|
0,1,4.3|
0,2,5.1|
1,0,1.3|
1,1,5.7|
1,2,9.3|
2,0,4.3|
2,1,3.5|
2,2,6.4|
];
constraint_x11_x2=[
0,0,7.6|
0,1,3.5|
0,2,0.15|
1,0,0.44|
1,1,7.5|
1,2,5.1|
2,0,5.8|
2,1,8.9|
2,2,3.8|
];
constraint_x11_x3=[
0,0,4.4|
0,1,8.3|
0,2,3.1|
1,0,7.5|
1,1,7.2|
1,2,5|
2,0,9|
2,1,1.9|
2,2,0.96|
];
constraint_x11_x5=[
0,0,6.2|
0,1,1.6|
0,2,7.9|
1,0,6.9|
1,1,7.4|
1,2,5.2|
2,0,1.5|
2,1,9.2|
2,2,8.6|
];
constraint_x12_x1=[
0,0,3.9|
0,1,6.1|
0,2,0.19|
1,0,6.6|
1,1,6.2|
1,2,9.4|
2,0,4.9|
2,1,9.7|
2,2,3.3|
];
constraint_x12_x4=[
0,0,7.4|
0,1,9.3|
0,2,4.2|
1,0,3.9|
1,1,7.7|
1,2,6.7|
2,0,2|
2,1,5.2|
2,2,5|
];
constraint_x12_x5=[
0,0,9.9|
0,1,9.8|
0,2,1.9|
1,0,2.2|
1,1,8.4|
1,2,5.8|
2,0,4.2|
2,1,3|
2,2,6.4|
];
constraint_x12_x8=[
0,0,9.7|
0,1,7.8|
0,2,5.5|
1,0,5.2|
1,1,10|
1,2,2.2|
2,0,0.19|
2,1,0.26|
2,2,5.9|
];
constraint_x12_x9=[
0,0,4.7|
0,1,8.8|
0,2,9.9|
1,0,3.3|
1,1,9.5|
1,2,8.7|
2,0,8.9|
2,1,0.13|
2,2,9.2|
];
constraint_x12_x10=[
0,0,5.3|
0,1,6.7|
0,2,9.4|
1,0,5.4|
1,1,8.3|
1,2,6.2|
2,0,6.6|
2,1,5.5|
2,2,9.9|
];
constraint_x13_x1=[
0,0,5.6|
0,1,4.6|
0,2,7.2|
1,0,8.5|
1,1,2.6|
1,2,1.1|
2,0,0.61|
2,1,0.32|
2,2,6|
];
constraint_x13_x2=[
0,0,5|
0,1,9.5|
0,2,3.6|
1,0,3.2|
1,1,3.6|
1,2,6|
2,0,9.7|
2,1,6.5|
2,2,0.76|
];
constraint_x13_x3=[
0,0,6.4|
0,1,0.23|
0,2,9.5|
1,0,6.9|
1,1,8.7|
1,2,5.5|
2,0,3.4|
2,1,1|
2,2,8|
];
constraint_x13_x5=[
0,0,0.97|
0,1,5.6|
0,2,0.92|
1,0,8.6|
1,1,5|
1,2,9.8|
2,0,0.64|
2,1,6.6|
2,2,7|
];
constraint_x13_x7=[
0,0,2.2|
0,1,6.1|
0,2,2|
1,0,7.3|
1,1,9.1|
1,2,2.3|
2,0,5.1|
2,1,4|
2,2,8|
];
constraint_x13_x8=[
0,0,5.4|
0,1,1.2|
0,2,3.8|
1,0,7.5|
1,1,1.1|
1,2,8.9|
2,0,2.7|
2,1,1.1|
2,2,1.6|
];
constraint_x13_x9=[
0,0,0.51|
0,1,7.3|
0,2,6.1|
1,0,7.7|
1,1,8.3|
1,2,9|
2,0,3.9|
2,1,5.3|
2,2,5.4|
];
constraint_x13_x10=[
0,0,7.6|
0,1,3.8|
0,2,4.8|
1,0,1.7|
1,1,5.5|
1,2,1.7|
2,0,9.8|
2,1,8.5|
2,2,7.8|
];
constraint_x13_x12=[
0,0,7.9|
0,1,8.3|
0,2,8.9|
1,0,6.1|
1,1,2|
1,2,7.9|
2,0,0.54|
2,1,6.2|
2,2,3|
];
constraint_x14_x1=[
0,0,8.4|
0,1,8|
0,2,4.4|
1,0,9.7|
1,1,2.4|
1,2,4.2|
2,0,8.8|
2,1,5.2|
2,2,6.8|
];
constraint_x14_x2=[
0,0,3.3|
0,1,3.5|
0,2,5.8|
1,0,8.2|
1,1,5.7|
1,2,2.1|
2,0,7|
2,1,8.2|
2,2,5.9|
];
constraint_x14_x3=[
0,0,5|
0,1,2.9|
0,2,2|
1,0,5.1|
1,1,1.3|
1,2,7.5|
2,0,6.3|
2,1,9.9|
2,2,8.3|
];
constraint_x14_x4=[
0,0,8.1|
0,1,7.2|
0,2,7.8|
1,0,0.44|
1,1,7.6|
1,2,1.3|
2,0,9.3|
2,1,7.9|
2,2,8.1|
];
constraint_x14_x5=[
0,0,9.2|
0,1,0.14|
0,2,6|
1,0,1.3|
1,1,9|
1,2,3.8|
2,0,7.1|
2,1,0.29|
2,2,0.58|
];
constraint_x14_x8=[
0,0,5.6|
0,1,4.6|
0,2,4.4|
1,0,4.4|
1,1,7.2|
1,2,7.7|
2,0,9.5|
2,1,3.3|
2,2,0.17|
];
constraint_x14_x9=[
0,0,8.5|
0,1,2.6|
0,2,3.4|
1,0,9.7|
1,1,1.8|
1,2,7.5|
2,0,8.1|
2,1,4.6|
2,2,0.9|
];
constraint_x14_x12=[
0,0,2.1|
0,1,1.2|
0,2,7.7|
1,0,3.3|
1,1,5.2|
1,2,3.4|
2,0,4.6|
2,1,7.9|
2,2,8.8|
];
constraint_x14_x13=[
0,0,1.1|
0,1,4.7|
0,2,7.6|
1,0,7.8|
1,1,5|
1,2,3.6|
2,0,5.1|
2,1,1|
2,2,9.6|
];
constraint_x15_x2=[
0,0,5.4|
0,1,0.81|
0,2,9.1|
1,0,1.6|
1,1,2.7|
1,2,3.2|
2,0,5.3|
2,1,7.4|
2,2,3.2|
];
constraint_x15_x3=[
0,0,6.4|
0,1,9.9|
0,2,4.4|
1,0,7|
1,1,0.64|
1,2,5.1|
2,0,3.8|
2,1,6.8|
2,2,8.8|
];
constraint_x15_x6=[
0,0,5.6|
0,1,3.5|
0,2,1.1|
1,0,2.8|
1,1,5.8|
1,2,7.2|
2,0,5.1|
2,1,9.6|
2,2,4.7|
];
constraint_x15_x7=[
0,0,0.37|
0,1,5.2|
0,2,3.4|
1,0,2.6|
1,1,2.3|
1,2,8.6|
2,0,6.2|
2,1,9.1|
2,2,2.1|
];
constraint_x15_x8=[
0,0,1.9|
0,1,1.4|
0,2,9.5|
1,0,7.2|
1,1,4|
1,2,3.2|
2,0,0.1|
2,1,7.9|
2,2,9.3|
];
constraint_x15_x9=[
0,0,10|
0,1,9.5|
0,2,6.2|
1,0,2.6|
1,1,9.9|
1,2,5.3|
2,0,8.2|
2,1,4.3|
2,2,5.8|
];
constraint_x15_x10=[
0,0,9.5|
0,1,8.7|
0,2,6.1|
1,0,8.4|
1,1,4.6|
1,2,5.7|
2,0,8.3|
2,1,3.9|
2,2,4.1|
];
constraint_x15_x12=[
0,0,0.43|
0,1,3.5|
0,2,6.4|
1,0,0.074|
1,1,7.8|
1,2,7.8|
2,0,6.4|
2,1,3.8|
2,2,7.7|
];
constraint_x15_x14=[
0,0,6.6|
0,1,8.4|
0,2,5.1|
1,0,2.2|
1,1,0.35|
1,2,9.8|
2,0,8.6|
2,1,4.4|
2,2,8.1|
];
constraint_x16_x4=[
0,0,7.4|
0,1,8|
0,2,4.3|
1,0,6|
1,1,3.1|
1,2,4.3|
2,0,2.8|
2,1,4.6|
2,2,7.2|
];
constraint_x16_x5=[
0,0,7.8|
0,1,8.8|
0,2,7.5|
1,0,7.4|
1,1,0.96|
1,2,5.7|
2,0,5|
2,1,5.2|
2,2,9.1|
];
constraint_x16_x7=[
0,0,7.7|
0,1,4.4|
0,2,3|
1,0,2.4|
1,1,9.6|
1,2,6.7|
2,0,7.9|
2,1,3.7|
2,2,8.4|
];
constraint_x16_x8=[
0,0,5.2|
0,1,6|
0,2,8.3|
1,0,7.7|
1,1,1.8|
1,2,8.7|
2,0,4.5|
2,1,5.3|
2,2,5.2|
];
constraint_x16_x10=[
0,0,8|
0,1,7.7|
0,2,6.9|
1,0,8.8|
1,1,5.6|
1,2,10|
2,0,4.3|
2,1,5.3|
2,2,5.1|
];
constraint_x17_x1=[
0,0,8.8|
0,1,4|
0,2,7.3|
1,0,6.2|
1,1,2.2|
1,2,2.1|
2,0,9.2|
2,1,6.9|
2,2,9.7|
];
constraint_x17_x2=[
0,0,5.2|
0,1,8.7|
0,2,0.95|
1,0,5.2|
1,1,8.2|
1,2,7.6|
2,0,2.2|
2,1,3.4|
2,2,7.8|
];
constraint_x17_x3=[
0,0,8.3|
0,1,2|
0,2,9.6|
1,0,9.7|
1,1,4.8|
1,2,4.3|
2,0,6|
2,1,2.1|
2,2,7.2|
];
constraint_x17_x4=[
0,0,4.3|
0,1,6.6|
0,2,0.36|
1,0,1.9|
1,1,5.2|
1,2,5.9|
2,0,9.3|
2,1,6.9|
2,2,4.3|
];
constraint_x17_x5=[
0,0,8.4|
0,1,7.3|
0,2,6.4|
1,0,8.3|
1,1,3.8|
1,2,9.8|
2,0,7.3|
2,1,7.1|
2,2,1.4|
];
constraint_x17_x7=[
0,0,7.6|
0,1,7.4|
0,2,6.8|
1,0,2.9|
1,1,4.7|
1,2,3.1|
2,0,5.6|
2,1,0.83|
2,2,10|
];
constraint_x17_x14=[
0,0,4|
0,1,3.1|
0,2,0.7|
1,0,4.3|
1,1,3.4|
1,2,0.5|
2,0,1.5|
2,1,8|
2,2,1|
];
constraint_x18_x2=[
0,0,5.6|
0,1,5.2|
0,2,4|
1,0,1.8|
1,1,1.2|
1,2,2.6|
2,0,9.9|
2,1,2.2|
2,2,8.4|
];
constraint_x18_x3=[
0,0,0.75|
0,1,5.5|
0,2,5.8|
1,0,4.8|
1,1,7.1|
1,2,2.5|
2,0,9.6|
2,1,9.8|
2,2,2.7|
];
constraint_x18_x8=[
0,0,6.7|
0,1,8.4|
0,2,3.5|
1,0,6.2|
1,1,1.7|
1,2,2.6|
2,0,3.1|
2,1,9.2|
2,2,0.94|
];
constraint_x18_x9=[
0,0,7|
0,1,0.4|
0,2,6.9|
1,0,1.1|
1,1,7.1|
1,2,6.2|
2,0,7.3|
2,1,6.9|
2,2,6.6|
];
constraint_x18_x11=[
0,0,3.2|
0,1,2.6|
0,2,9.1|
1,0,6.9|
1,1,3.2|
1,2,4.1|
2,0,5.7|
2,1,3.5|
2,2,8.5|
];
constraint_x18_x13=[
0,0,7.4|
0,1,1.4|
0,2,2.9|
1,0,4.5|
1,1,9.5|
1,2,1.4|
2,0,0.69|
2,1,9.7|
2,2,2.2|
];
constraint_x18_x14=[
0,0,4.4|
0,1,7.7|
0,2,8.7|
1,0,0.0042|
1,1,2.3|
1,2,6.7|
2,0,3.3|
2,1,4.2|
2,2,6.9|
];
constraint_x18_x16=[
0,0,9.2|
0,1,7.4|
0,2,4.7|
1,0,8.1|
1,1,5.4|
1,2,6.7|
2,0,0.22|
2,1,3.8|
2,2,7.8|
];
constraint_x19_x2=[
0,0,6.9|
0,1,5.9|
0,2,5|
1,0,7.8|
1,1,2.5|
1,2,1.6|
2,0,6.5|
2,1,8.9|
2,2,6.5|
];
constraint_x19_x3=[
0,0,2.5|
0,1,2.8|
0,2,1.7|
1,0,8.5|
1,1,5.4|
1,2,5.2|
2,0,2.9|
2,1,6.2|
2,2,3.5|
];
constraint_x19_x4=[
0,0,10|
0,1,3.5|
0,2,3.1|
1,0,1.8|
1,1,6.9|
1,2,4.4|
2,0,6|
2,1,3.5|
2,2,4.4|
];
constraint_x19_x6=[
0,0,9.1|
0,1,2.2|
0,2,8.2|
1,0,4.7|
1,1,4.3|
1,2,6.6|
2,0,4.1|
2,1,7.7|
2,2,4|
];
constraint_x19_x7=[
0,0,0.0025|
0,1,4.5|
0,2,6.2|
1,0,3.2|
1,1,9.8|
1,2,1.9|
2,0,6.5|
2,1,2.4|
2,2,5.1|
];
constraint_x19_x9=[
0,0,4.9|
0,1,8.7|
0,2,8.5|
1,0,3.6|
1,1,4.8|
1,2,0.88|
2,0,9.1|
2,1,1.7|
2,2,2.5|
];
constraint_x19_x15=[
0,0,9.1|
0,1,1.6|
0,2,3|
1,0,3.4|
1,1,9.2|
1,2,4.4|
2,0,5.7|
2,1,6.6|
2,2,4.3|
];
constraint_x20_x6=[
0,0,2.6|
0,1,4.1|
0,2,5|
1,0,3.4|
1,1,8.8|
1,2,7|
2,0,1.8|
2,1,9.1|
2,2,6|
];
constraint_x20_x9=[
0,0,8.4|
0,1,1.9|
0,2,5.7|
1,0,5.8|
1,1,6.2|
1,2,5.7|
2,0,5.6|
2,1,1.1|
2,2,6|
];
constraint_x20_x10=[
0,0,6|
0,1,7.3|
0,2,0.6|
1,0,2.4|
1,1,3.8|
1,2,2.2|
2,0,4.5|
2,1,7.9|
2,2,8.6|
];
constraint_x20_x12=[
0,0,4|
0,1,1.8|
0,2,7.6|
1,0,7|
1,1,2.2|
1,2,2.6|
2,0,2.6|
2,1,4.4|
2,2,8.5|
];
constraint_x20_x13=[
0,0,2.6|
0,1,0.52|
0,2,8.7|
1,0,4.9|
1,1,0.36|
1,2,5|
2,0,7|
2,1,0.71|
2,2,0.63|
];
constraint_x20_x16=[
0,0,8.8|
0,1,8.2|
0,2,2.8|
1,0,3.4|
1,1,2|
1,2,8.4|
2,0,3.7|
2,1,4.8|
2,2,9.9|
];
constraint_x20_x19=[
0,0,0.19|
0,1,4.3|
0,2,5.8|
1,0,8.3|
1,1,0.85|
1,2,8|
2,0,8.8|
2,1,2.1|
2,2,0.42|
];
constraint_x21_x1=[
0,0,5.1|
0,1,2.9|
0,2,9|
1,0,2.1|
1,1,8.2|
1,2,8.2|
2,0,0.83|
2,1,8.2|
2,2,9.3|
];
constraint_x21_x2=[
0,0,0.63|
0,1,5.1|
0,2,7.4|
1,0,0.25|
1,1,7.9|
1,2,0.54|
2,0,9.8|
2,1,8.7|
2,2,8.2|
];
constraint_x21_x4=[
0,0,6.9|
0,1,5.9|
0,2,5.8|
1,0,0.42|
1,1,4.2|
1,2,6.7|
2,0,3.6|
2,1,5.2|
2,2,6|
];
constraint_x21_x5=[
0,0,1.3|
0,1,6.8|
0,2,8.2|
1,0,2.3|
1,1,9.3|
1,2,9.3|
2,0,2.1|
2,1,1.2|
2,2,2.9|
];
constraint_x21_x8=[
0,0,3.4|
0,1,3.3|
0,2,6.4|
1,0,2.9|
1,1,7.1|
1,2,4|
2,0,6.6|
2,1,9.9|
2,2,2.2|
];
constraint_x21_x10=[
0,0,5.5|
0,1,1.4|
0,2,6.1|
1,0,2.1|
1,1,8.6|
1,2,1.9|
2,0,9.3|
2,1,9.8|
2,2,2|
];
constraint_x21_x11=[
0,0,2.5|
0,1,6.9|
0,2,8.5|
1,0,9.3|
1,1,7.8|
1,2,3.6|
2,0,6.2|
2,1,4.9|
2,2,9.3|
];
constraint_x21_x13=[
0,0,6.1|
0,1,8.1|
0,2,7.2|
1,0,4.4|
1,1,8.6|
1,2,0.22|
2,0,2.5|
2,1,0.99|
2,2,7.9|
];
constraint_x21_x14=[
0,0,3.8|
0,1,7.8|
0,2,3.4|
1,0,8.1|
1,1,6.2|
1,2,3.1|
2,0,9.6|
2,1,2.3|
2,2,8.8|
];
constraint_x21_x16=[
0,0,1.1|
0,1,3.9|
0,2,8.3|
1,0,4.5|
1,1,4.2|
1,2,0.95|
2,0,7.1|
2,1,8.4|
2,2,7.3|
];
constraint_x21_x19=[
0,0,3.6|
0,1,4.1|
0,2,9.6|
1,0,3.2|
1,1,0.95|
1,2,5.9|
2,0,8.4|
2,1,7.3|
2,2,7.9|
];
constraint_x22_x3=[
0,0,6.1|
0,1,5.9|
0,2,1.2|
1,0,8.5|
1,1,2.4|
1,2,8|
2,0,9.3|
2,1,7.9|
2,2,7.9|
];
constraint_x22_x5=[
0,0,3.4|
0,1,3.8|
0,2,3.5|
1,0,2.7|
1,1,5.6|
1,2,8.5|
2,0,5.1|
2,1,10|
2,2,7.2|
];
constraint_x22_x7=[
0,0,9.2|
0,1,3.4|
0,2,0.64|
1,0,2.1|
1,1,5.8|
1,2,4.6|
2,0,0.02|
2,1,4.3|
2,2,8|
];
constraint_x22_x10=[
0,0,9.2|
0,1,9.8|
0,2,4.5|
1,0,4.6|
1,1,2.3|
1,2,1.4|
2,0,1.4|
2,1,0.3|
2,2,7.1|
];
constraint_x22_x13=[
0,0,6.1|
0,1,4.6|
0,2,9.6|
1,0,6.4|
1,1,3.4|
1,2,4.3|
2,0,6.3|
2,1,4.6|
2,2,0.8|
];
constraint_x22_x14=[
0,0,3.7|
0,1,9.4|
0,2,2.3|
1,0,9.9|
1,1,7.7|
1,2,7|
2,0,8.3|
2,1,7.6|
2,2,8.8|
];
constraint_x22_x15=[
0,0,1.1|
0,1,7.3|
0,2,0.16|
1,0,1.4|
1,1,3.4|
1,2,7.7|
2,0,5.1|
2,1,7.5|
2,2,2.3|
];
constraint_x22_x16=[
0,0,1.9|
0,1,1.2|
0,2,4.7|
1,0,2|
1,1,7.9|
1,2,8.3|
2,0,1.3|
2,1,2.5|
2,2,8.2|
];
constraint_x22_x17=[
0,0,0.13|
0,1,6.3|
0,2,1.6|
1,0,7.8|
1,1,3.2|
1,2,6|
2,0,8.3|
2,1,3.2|
2,2,2.1|
];
constraint_x22_x18=[
0,0,8.7|
0,1,4.6|
0,2,6.5|
1,0,1.7|
1,1,6|
1,2,7.1|
2,0,4.5|
2,1,4.6|
2,2,9.4|
];
constraint_x22_x21=[
0,0,0.76|
0,1,8.6|
0,2,4.8|
1,0,9.9|
1,1,1.2|
1,2,10|
2,0,5.6|
2,1,1.8|
2,2,0.065|
];
constraint_x23_x4=[
0,0,5.7|
0,1,6|
0,2,6.9|
1,0,8|
1,1,3.1|
1,2,2.1|
2,0,3.4|
2,1,9.8|
2,2,6.6|
];
constraint_x23_x5=[
0,0,5.3|
0,1,10|
0,2,5.4|
1,0,9|
1,1,5|
1,2,2.1|
2,0,6.6|
2,1,7.6|
2,2,4.3|
];
constraint_x23_x7=[
0,0,8.6|
0,1,4.1|
0,2,2.6|
1,0,6.6|
1,1,2.1|
1,2,2.4|
2,0,5|
2,1,7.8|
2,2,9.1|
];
constraint_x23_x9=[
0,0,9.4|
0,1,9.1|
0,2,6.2|
1,0,2.2|
1,1,7.1|
1,2,3.5|
2,0,5.4|
2,1,5.2|
2,2,7.5|
];
constraint_x23_x10=[
0,0,6.6|
0,1,0.64|
0,2,3.3|
1,0,7.3|
1,1,0.39|
1,2,2.3|
2,0,7.8|
2,1,7.1|
2,2,9|
];
constraint_x23_x11=[
0,0,3.3|
0,1,0.5|
0,2,6.8|
1,0,4.2|
1,1,7.8|
1,2,3.9|
2,0,7.6|
2,1,6.5|
2,2,5|
];
constraint_x23_x13=[
0,0,6.8|
0,1,9.1|
0,2,3.2|
1,0,9.3|
1,1,1.2|
1,2,1.5|
2,0,6.5|
2,1,9.2|
2,2,9.5|
];
constraint_x23_x15=[
0,0,9.2|
0,1,8.5|
0,2,5.4|
1,0,0.32|
1,1,4.5|
1,2,5.6|
2,0,1.9|
2,1,6.4|
2,2,1.2|
];
constraint_x23_x16=[
0,0,8.4|
0,1,2.4|
0,2,4|
1,0,8.6|
1,1,0.68|
1,2,7.6|
2,0,3|
2,1,9.1|
2,2,8.4|
];
constraint_x23_x17=[
0,0,0.092|
0,1,9.2|
0,2,1.3|
1,0,4|
1,1,0.27|
1,2,9.1|
2,0,1.8|
2,1,2.7|
2,2,6.2|
];
constraint_x23_x18=[
0,0,5.5|
0,1,6.9|
0,2,1.7|
1,0,9.7|
1,1,5.6|
1,2,7.8|
2,0,6.4|
2,1,2.9|
2,2,9.7|
];
constraint_x23_x19=[
0,0,8.7|
0,1,0.78|
0,2,2|
1,0,1.8|
1,1,0.55|
1,2,7.7|
2,0,5.4|
2,1,6.2|
2,2,1.5|
];
constraint_x23_x20=[
0,0,3.1|
0,1,3.8|
0,2,2.8|
1,0,5.8|
1,1,3.2|
1,2,8.9|
2,0,8.3|
2,1,2.8|
2,2,1|
];
constraint_x23_x22=[
0,0,7|
0,1,0.93|
0,2,8.1|
1,0,7.4|
1,1,9.1|
1,2,0.45|
2,0,6.4|
2,1,4.3|
2,2,10|
];
constraint_x24_x4=[
0,0,9.2|
0,1,2.6|
0,2,8.6|
1,0,3.2|
1,1,6.5|
1,2,8.8|
2,0,1.4|
2,1,4.2|
2,2,8|
];
constraint_x24_x7=[
0,0,0.75|
0,1,4.3|
0,2,5.8|
1,0,5|
1,1,1.6|
1,2,4.2|
2,0,5.8|
2,1,4|
2,2,6.6|
];
constraint_x24_x8=[
0,0,8.9|
0,1,5.5|
0,2,5|
1,0,5.7|
1,1,10|
1,2,5.9|
2,0,2.5|
2,1,0.29|
2,2,9.9|
];
constraint_x24_x12=[
0,0,0.52|
0,1,0.92|
0,2,4.2|
1,0,0.67|
1,1,1.3|
1,2,2|
2,0,1.8|
2,1,9.1|
2,2,0.34|
];
constraint_x24_x18=[
0,0,8.3|
0,1,9.9|
0,2,4.5|
1,0,0.34|
1,1,3.3|
1,2,9.9|
2,0,6.5|
2,1,0.15|
2,2,2|
];
constraint_x24_x19=[
0,0,8.1|
0,1,1.3|
0,2,9.6|
1,0,6.7|
1,1,5.5|
1,2,1.7|
2,0,5.9|
2,1,7.6|
2,2,2.1|
];
constraint_x24_x21=[
0,0,10|
0,1,9.6|
0,2,2.5|
1,0,5.2|
1,1,5|
1,2,7.5|
2,0,4.6|
2,1,2.8|
2,2,3.1|
];
constraint_x24_x23=[
0,0,7.7|
0,1,8.2|
0,2,6.4|
1,0,6.9|
1,1,8.8|
1,2,8.1|
2,0,4.6|
2,1,5|
2,2,6.2|
];
constraint_x25_x1=[
0,0,7.5|
0,1,5.2|
0,2,0.58|
1,0,9.3|
1,1,5.2|
1,2,5.9|
2,0,6.7|
2,1,5.2|
2,2,1.7|
];
constraint_x25_x2=[
0,0,2.8|
0,1,3.6|
0,2,7.5|
1,0,5.5|
1,1,1.1|
1,2,1.8|
2,0,7.6|
2,1,6.2|
2,2,8.7|
];
constraint_x25_x5=[
0,0,6.8|
0,1,5.4|
0,2,2.9|
1,0,2.4|
1,1,8.4|
1,2,2.8|
2,0,9.9|
2,1,9.1|
2,2,7.3|
];
constraint_x25_x7=[
0,0,0.65|
0,1,7.6|
0,2,4.4|
1,0,4.5|
1,1,4.9|
1,2,4.6|
2,0,10|
2,1,5.2|
2,2,9.7|
];
constraint_x25_x9=[
0,0,8.1|
0,1,0.39|
0,2,9.4|
1,0,1.1|
1,1,4.6|
1,2,7.1|
2,0,5.1|
2,1,4.3|
2,2,8.6|
];
constraint_x25_x10=[
0,0,0.81|
0,1,0.57|
0,2,5.3|
1,0,5.1|
1,1,4.7|
1,2,9.4|
2,0,4.3|
2,1,8.4|
2,2,10|
];
constraint_x25_x11=[
0,0,7.5|
0,1,2.9|
0,2,0.8|
1,0,5.7|
1,1,8.4|
1,2,2.4|
2,0,0.69|
2,1,3.2|
2,2,5.4|
];
constraint_x25_x12=[
0,0,0.32|
0,1,3.7|
0,2,3.6|
1,0,2.7|
1,1,5|
1,2,3.6|
2,0,7.3|
2,1,5.4|
2,2,1.7|
];
constraint_x25_x17=[
0,0,9.6|
0,1,5|
0,2,9|
1,0,7.4|
1,1,8.7|
1,2,9.9|
2,0,6.8|
2,1,6.4|
2,2,2.2|
];
constraint_x25_x20=[
0,0,8.3|
0,1,7.2|
0,2,9.6|
1,0,1.5|
1,1,1.3|
1,2,1.1|
2,0,2.2|
2,1,3.2|
2,2,4.6|
];
constraint_x25_x23=[
0,0,8.8|
0,1,3.9|
0,2,0.49|
1,0,5.1|
1,1,0.69|
1,2,5.6|
2,0,9.2|
2,1,2|
2,2,0.98|
];
constraint_x1_y1=[
0,0,10|
0,1,0.98|
0,2,6.7|
1,0,8.2|
1,1,7.1|
1,2,5.9|
2,0,8.6|
2,1,4.3|
2,2,0.51|
];
constraint_x2_y2=[
0,0,0.34|
0,1,5|
0,2,6.1|
1,0,8.7|
1,1,0.22|
1,2,3.3|
2,0,0.24|
2,1,5.4|
2,2,2.4|
];
constraint_x3_y3=[
0,0,7.1|
0,1,6.8|
0,2,6|
1,0,7.9|
1,1,9.1|
1,2,6.3|
2,0,1.8|
2,1,6.8|
2,2,2|
];
constraint_x4_y4=[
0,0,0.058|
0,1,3|
0,2,9.1|
1,0,8.5|
1,1,0.15|
1,2,1.7|
2,0,2.9|
2,1,5.3|
2,2,8.2|
];
constraint_x5_y5=[
0,0,5.6|
0,1,9.5|
0,2,6.3|
1,0,9.4|
1,1,8.3|
1,2,0.51|
2,0,1|
2,1,3|
2,2,8.9|
];
initial_distribution_y1=[0.77,0.19,0.047];
initial_distribution_y2=[0.7,0.16,0.14];
initial_distribution_y3=[0.51,0.08,0.41];
initial_distribution_y4=[0.41,0.51,0.074];
initial_distribution_y5=[0.65,0.29,0.063];
transition_y1=[
0.33,0.055,0.61|
0.45,0.52,0.031|
0.42,0.31,0.27|
];
transition_y2=[
0.33,0.21,0.46|
0.5,0.15,0.35|
0.15,0.53,0.32|
];
transition_y3=[
0.3,0.32,0.38|
0.028,0.046,0.93|
0.61,0.11,0.27|
];
transition_y4=[
0.034,0.67,0.29|
0.37,0.37,0.26|
0.36,0.024,0.62|
];
transition_y5=[
0.18,0.58,0.24|
0.45,0.26,0.29|
0.28,0.45,0.27|
];
